(set-logic ALL)
(declare-fun var0 () String)
(assert (str.in_re var0 (re.++ (re.union (re.* (str.to_re "000")) (re.* (str.to_re "11"))) (re.++ (re.+ (re.* (str.to_re "22"))) (re.++ (re.union (re.* (str.to_re "3")) (re.* (str.to_re "4"))) (re.++ (re.* (re.+ (str.to_re "555"))) (re.++ (re.+ (re.+ (str.to_re "66"))) (re.++ (re.+ (re.union (str.to_re "777") (str.to_re "88"))) (re.++ (re.union (re.union (str.to_re "99") (str.to_re "a")) (re.union (str.to_re "bbb") (str.to_re "ccc"))) (re.++ (re.+ (re.* (str.to_re "d"))) (re.++ (re.union (re.* (str.to_re "ee")) (re.* (str.to_re "ff"))) (re.++ (re.* (re.+ (str.to_re "gg"))) (re.++ (re.+ (re.+ (str.to_re "h"))) (re.++ (re.union (re.+ (str.to_re "ii")) (re.+ (str.to_re "j"))) (re.++ (re.union (re.* (str.to_re "k")) (re.* (str.to_re "lll"))) (re.++ (re.union (re.union (str.to_re "m") (str.to_re "n")) (re.union (str.to_re "oo") (str.to_re "pp"))) (re.++ (re.union (re.union (str.to_re "q") (str.to_re "r")) (re.union (str.to_re "s") (str.to_re "tt"))) (re.++ (re.+ (re.* (str.to_re "uu"))) (re.++ (re.union (re.union (str.to_re "vvv") (str.to_re "www")) (re.union (str.to_re "x") (str.to_re "yy"))) (re.++ (re.union (re.* (str.to_re "z")) (re.* (str.to_re "A"))) (re.++ (re.union (re.* (str.to_re "BBB")) (re.* (str.to_re "C"))) (re.++ (re.+ (re.+ (str.to_re "DD"))) (re.++ (re.* (re.* (str.to_re "EE"))) (re.++ (re.* (re.union (str.to_re "F") (str.to_re "G"))) (re.++ (re.union (re.+ (str.to_re "HH")) (re.+ (str.to_re "III"))) (re.++ (re.+ (re.+ (str.to_re "J"))) (re.++ (re.* (re.+ (str.to_re "KKK"))) (re.++ (re.+ (re.* (str.to_re "L"))) (re.++ (re.* (re.union (str.to_re "MMM") (str.to_re "NNN"))) (re.++ (re.+ (re.* (str.to_re "OOO"))) (re.++ (re.* (re.* (str.to_re "P"))) (re.++ (re.union (re.union (str.to_re "QQQ") (str.to_re "RRR")) (re.union (str.to_re "S") (str.to_re "T"))) (re.++ (re.+ (re.+ (str.to_re "U"))) (re.++ (re.union (re.* (str.to_re "VV")) (re.* (str.to_re "WW"))) (re.++ (re.* (re.* (str.to_re "XXX"))) (re.++ (re.+ (re.* (str.to_re "YY"))) (re.++ (re.+ (re.+ (str.to_re "Z"))) (re.++ (re.+ (re.* (str.to_re "!!!"))) (re.++ (re.+ (re.+ (str.to_re """"""))) (re.++ (re.union (re.+ (str.to_re "##")) (re.+ (str.to_re "$$$"))) (re.++ (re.* (re.union (str.to_re "%%") (str.to_re "&&&"))) (re.++ (re.union (re.* (str.to_re "'''")) (re.* (str.to_re "((("))) (re.++ (re.+ (re.* (str.to_re "))"))) (re.++ (re.union (re.+ (str.to_re "**")) (re.+ (str.to_re "+"))) (re.++ (re.union (re.* (str.to_re ",,")) (re.* (str.to_re "---"))) (re.++ (re.* (re.union (str.to_re ".") (str.to_re "///"))) (re.++ (re.+ (re.union (str.to_re ":::") (str.to_re ";;;"))) (re.++ (re.+ (re.* (str.to_re "<<<"))) (re.++ (re.* (re.* (str.to_re "="))) (re.++ (re.union (re.union (str.to_re ">>>") (str.to_re "??")) (re.union (str.to_re "@@@") (str.to_re "[["))) (re.++ (re.union (re.union (str.to_re "\\\\") (str.to_re "]")) (re.union (str.to_re "^") (str.to_re "___"))) (re.++ (re.+ (re.+ (str.to_re "``"))) (re.++ (re.union (re.+ (str.to_re "{{{")) (re.+ (str.to_re "||"))) (re.++ (re.* (re.+ (str.to_re "}}"))) (re.++ (re.+ (re.* (str.to_re "~~"))) (re.++ (re.union (re.union (str.to_re "0") (str.to_re "111")) (re.union (str.to_re "2") (str.to_re "333"))) (re.++ (re.* (re.union (str.to_re "444") (str.to_re "555"))) (re.+ (re.+ (str.to_re "66"))))))))))))))))))))))))))))))))))))))))))))))))))))))))))))
(assert (not (str.in_re var0 (re.++ (re.+ (re.union (str.to_re "0") (str.to_re "11"))) (re.++ (re.union (re.* (str.to_re "2")) (re.* (str.to_re "333"))) (re.++ (re.+ (re.+ (str.to_re "444"))) (re.++ (re.* (re.* (str.to_re "555"))) (re.++ (re.+ (re.union (str.to_re "6") (str.to_re "7"))) (re.++ (re.* (re.union (str.to_re "88") (str.to_re "999"))) (re.++ (re.* (re.+ (str.to_re "a"))) (re.++ (re.* (re.union (str.to_re "bbb") (str.to_re "c"))) (re.++ (re.union (re.union (str.to_re "d") (str.to_re "e")) (re.union (str.to_re "f") (str.to_re "g"))) (re.++ (re.+ (re.+ (str.to_re "hh"))) (re.++ (re.* (re.* (str.to_re "ii"))) (re.++ (re.union (re.union (str.to_re "jjj") (str.to_re "kkk")) (re.union (str.to_re "l") (str.to_re "mmm"))) (re.++ (re.* (re.union (str.to_re "nn") (str.to_re "o"))) (re.++ (re.+ (re.* (str.to_re "ppp"))) (re.++ (re.* (re.+ (str.to_re "qq"))) (re.++ (re.+ (re.* (str.to_re "rrr"))) (re.++ (re.+ (re.* (str.to_re "s"))) (re.++ (re.* (re.* (str.to_re "t"))) (re.++ (re.union (re.* (str.to_re "uu")) (re.* (str.to_re "v"))) (re.++ (re.* (re.* (str.to_re "ww"))) (re.++ (re.* (re.* (str.to_re "xx"))) (re.++ (re.+ (re.* (str.to_re "y"))) (re.++ (re.+ (re.union (str.to_re "zz") (str.to_re "A"))) (re.++ (re.* (re.+ (str.to_re "BBB"))) (re.++ (re.union (re.union (str.to_re "C") (str.to_re "D")) (re.union (str.to_re "E") (str.to_re "FF"))) (re.++ (re.* (re.+ (str.to_re "GGG"))) (re.++ (re.union (re.union (str.to_re "H") (str.to_re "I")) (re.union (str.to_re "JJJ") (str.to_re "K"))) (re.++ (re.+ (re.union (str.to_re "L") (str.to_re "MMM"))) (re.++ (re.+ (re.* (str.to_re "N"))) (re.++ (re.* (re.* (str.to_re "OOO"))) (re.++ (re.+ (re.* (str.to_re "PPP"))) (re.++ (re.* (re.+ (str.to_re "QQQ"))) (re.++ (re.union (re.* (str.to_re "RR")) (re.* (str.to_re "SSS"))) (re.++ (re.* (re.* (str.to_re "TT"))) (re.++ (re.* (re.* (str.to_re "U"))) (re.++ (re.* (re.* (str.to_re "VVV"))) (re.++ (re.union (re.* (str.to_re "WW")) (re.* (str.to_re "XX"))) (re.++ (re.+ (re.* (str.to_re "YYY"))) (re.++ (re.+ (re.+ (str.to_re "ZZ"))) (re.++ (re.* (re.* (str.to_re "!!!"))) (re.++ (re.* (re.union (str.to_re """""""") (str.to_re "###"))) (re.++ (re.* (re.union (str.to_re "$$$") (str.to_re "%"))) (re.++ (re.union (re.* (str.to_re "&")) (re.* (str.to_re "''"))) (re.++ (re.+ (re.* (str.to_re "("))) (re.++ (re.+ (re.* (str.to_re ")))"))) (re.++ (re.* (re.* (str.to_re "**"))) (re.++ (re.* (re.union (str.to_re "+++") (str.to_re ",,"))) (re.++ (re.* (re.union (str.to_re "-") (str.to_re ".."))) (re.++ (re.+ (re.+ (str.to_re "//"))) (re.++ (re.union (re.union (str.to_re ":::") (str.to_re ";;;")) (re.union (str.to_re "<<") (str.to_re "==="))) (re.++ (re.union (re.* (str.to_re ">")) (re.* (str.to_re "???"))) (re.++ (re.union (re.union (str.to_re "@@") (str.to_re "[")) (re.union (str.to_re "\\\\\\") (str.to_re "]"))) (re.++ (re.union (re.* (str.to_re "^^")) (re.* (str.to_re "___"))) (re.++ (re.+ (re.+ (str.to_re "```"))) (re.++ (re.+ (re.union (str.to_re "{{") (str.to_re "|"))) (re.* (re.+ (str.to_re "}}")))))))))))))))))))))))))))))))))))))))))))))))))))))))))))))
(check-sat)